sifdecoder -A pc64.lnx.gfo -st   A2ENSNDL

 Problem name: A2ENSNDL

 Double precision version will be formed

 The objective function uses 2 linear groups
 
 There are 15002 linear equality constraints
 
 There are 10002 free variables
 There are 10000 variables bounded only from below 
 There are 25004 fixed variables
 
 
 File successfully decoded
 CUTEST: tools (double precision version) compiled successfully
 CUTEst: ipopt (double precision version) compiled successfully

******************************************************************************
This program contains Ipopt, a library for large-scale nonlinear optimization.
 Ipopt is released as open source code under the Eclipse Public License (EPL).
         For more information visit http://projects.coin-or.org/Ipopt
******************************************************************************

This is Ipopt version trunk, running with linear solver ma57.

Number of nonzeros in equality constraint Jacobian...:    53021
Number of nonzeros in inequality constraint Jacobian.:        0
Number of nonzeros in Lagrangian Hessian.............:    25002

Total number of variables............................:    20002
                     variables with only lower bounds:    10000
                variables with lower and upper bounds:        0
                     variables with only upper bounds:        0
Total number of equality constraints.................:    15002
Total number of inequality constraints...............:        0
        inequality constraints with only lower bounds:        0
   inequality constraints with lower and upper bounds:        0
        inequality constraints with only upper bounds:        0

iter    objective    inf_pr   inf_du lg(mu)  ||d||  lg(rg) alpha_du alpha_pr  ls
   0  4.9999900e-01 9.92e+01 6.96e-01  -1.0 0.00e+00    -  0.00e+00 0.00e+00   0
Reallocating memory for MA57: lfact (1787737)
   1  4.8485297e-01 9.90e+01 1.20e+00  -1.0 1.29e+02  -4.0 9.90e-04 2.01e-03h  1
   2  6.6328602e-01 9.84e+01 2.22e+00  -1.0 2.66e+01  -4.5 2.03e-03 6.19e-03h  1
   3  3.2143227e+00 9.52e+01 2.79e+00  -1.0 9.96e+00  -5.0 8.60e-03 3.24e-02f  1
   4  2.2195672e+02 4.88e+01 5.46e+00  -1.0 9.65e+00  -5.4 4.75e-02 4.87e-01f  1
   5  2.2078846e+02 4.19e+01 1.71e+01  -1.0 5.17e+01  -5.9 5.57e-01 1.42e-01f  1
   6  2.7873717e+02 1.99e+01 1.41e+01  -1.0 9.50e+00  -6.4 6.77e-01 5.24e-01f  1
   7  3.4353665e+02 7.91e+00 2.67e+02  -1.0 3.66e+00  -6.9 1.07e-01 6.03e-01h  1
   8  3.6623094e+02 4.72e+00 4.81e+02  -1.0 2.49e+00  -7.3 4.84e-02 4.03e-01h  1
   9  3.7608269e+02 3.35e+00 3.35e+02  -1.0 2.24e+00  -7.8 2.32e-01 2.90e-01h  1
iter    objective    inf_pr   inf_du lg(mu)  ||d||  lg(rg) alpha_du alpha_pr  ls
  10  3.8541314e+02 2.12e+00 9.23e+02  -1.0 1.19e+00  -8.3 4.63e-01 3.69e-01h  1
  11  3.9508422e+02 8.49e-01 5.04e+04  -1.0 3.96e-01  -8.8 2.82e-02 5.99e-01h  1
  12  3.9765855e+02 5.19e-01 7.26e+04  -1.0 2.79e-01  -9.2 1.81e-02 3.89e-01h  1
  13  3.9858799e+02 3.99e-01 5.56e+04  -1.0 3.20e-01  -9.7 2.05e-02 2.31e-01h  1
  14  3.9920436e+02 3.21e-01 3.01e+04  -1.0 2.97e-01 -10.2 1.20e-02 1.96e-01h  1
  15  3.9963547e+02 2.65e-01 6.20e+04  -1.0 2.74e-01 -10.7 3.62e-03 1.73e-01h  1
  16  3.9994686e+02 2.26e-01 6.78e+04  -1.0 2.68e-01 -11.2 3.12e-03 1.48e-01h  1
  17  4.0018793e+02 1.95e-01 5.83e+04  -1.0 2.48e-01 -11.6 7.27e-02 1.37e-01h  1
  18  4.0049324e+02 1.56e-01 2.12e+04  -1.0 1.44e-01 -12.1 3.94e-02 1.98e-01h  1
  19  4.0084994e+02 1.11e-01 7.77e+05  -1.0 7.41e-02 -12.6 5.65e-03 2.91e-01h  1
iter    objective    inf_pr   inf_du lg(mu)  ||d||  lg(rg) alpha_du alpha_pr  ls
  20  4.0102167e+02 8.91e-02 6.24e+05  -1.0 8.26e-02 -13.1 4.14e-03 1.96e-01h  1
  21  4.0113385e+02 7.47e-02 4.67e+05  -1.0 8.25e-02 -13.5 1.25e-02 1.61e-01h  1
  22  4.0121390e+02 6.47e-02 4.00e+05  -1.0 8.41e-02 -14.0 1.80e-02 1.35e-01h  1
  23  4.0128614e+02 5.55e-02 6.55e+05  -1.0 6.84e-02 -14.5 2.50e-03 1.43e-01h  1
  24  4.0135118e+02 4.73e-02 6.49e+05  -1.0 5.66e-02 -15.0 2.44e-03 1.47e-01h  1
  25  4.0139440e+02 4.18e-02 5.72e+05  -1.0 6.19e-02 -14.5 2.22e-02 1.17e-01h  1
  26  4.0143702e+02 3.64e-02 4.10e+05  -1.0 4.97e-02 -14.1 2.45e-02 1.28e-01h  1
  27  4.0149112e+02 2.95e-02 1.60e+06  -1.0 2.84e-02 -14.6 3.13e-03 1.89e-01h  1
  28  4.0152943e+02 2.47e-02 1.47e+06  -1.0 2.71e-02 -14.2 2.84e-03 1.63e-01h  1
  29  4.0155383e+02 2.16e-02 1.28e+06  -1.0 3.00e-02 -14.7 1.26e-02 1.26e-01h  1
iter    objective    inf_pr   inf_du lg(mu)  ||d||  lg(rg) alpha_du alpha_pr  ls
  30  4.0157389e+02 1.91e-02 9.61e+05  -1.0 2.86e-02 -14.2 1.33e-02 1.16e-01h  1
  31  4.0159248e+02 1.67e-02 2.12e+06  -1.0 2.36e-02 -14.7 1.93e-03 1.24e-01h  1
  32  4.0160928e+02 1.46e-02 2.15e+06  -1.0 2.04e-02 -14.3 2.01e-03 1.26e-01h  1
  33  4.0162108e+02 1.31e-02 1.92e+06  -1.0 2.21e-02 -14.8 3.14e-02 1.03e-01h  1
  34  4.0163484e+02 1.14e-02 1.41e+06  -1.0 1.53e-02 -14.3 3.05e-02 1.31e-01h  1
  35  4.0165496e+02 8.87e-03 7.07e+06  -1.0 7.44e-03 -14.8 3.75e-03 2.23e-01h  1
  36  4.0166111e+02 8.10e-03 6.45e+06  -1.0 7.64e-03 -14.4 3.16e-03 8.69e-02f  2
  37  4.0168653e+02 4.90e-03 3.97e+06  -1.0 1.19e-03 -14.9 1.00e+00 3.95e-01h  1
Reallocating memory for MA57: lfact (4491861)
  38  4.0169222e+02 4.19e-03 3.87e+06  -1.0 9.88e-04 -14.4 3.80e-01 1.46e-01f  3
Reallocating memory for MA57: lfact (5400700)
  39  4.0171499e+02 1.32e-03 1.67e+06  -1.0 5.48e-04 -14.9 4.54e-01 6.84e-01h  1
Reallocating memory for MA57: lfact (6150660)
iter    objective    inf_pr   inf_du lg(mu)  ||d||  lg(rg) alpha_du alpha_pr  ls
  40  4.0171625e+02 1.17e-03 1.79e+06  -1.0 3.67e-04 -14.5 1.00e+00 1.19e-01f  3
  41  4.0172358e+02 2.43e-04 4.94e+05  -1.0 3.34e-03 -15.0 1.00e+00 7.91e-01h  1
  42  4.0172390e+02 2.03e-04 1.99e+07  -1.0 2.31e-04 -14.5 1.00e+00 1.64e-01f  3
  43  4.0172552e+02 6.84e-13 9.39e+06  -1.0 1.56e+00 -14.1 7.19e-01 1.00e+00h  1
  44  4.0172552e+02 7.10e-13 1.00e-06  -1.0 1.65e+01 -14.6 1.00e+00 1.00e+00f  1
  45  2.7578034e+01 3.18e-12 1.74e+05  -8.6 4.36e+00 -14.2 1.00e+00 9.84e-01f  1
  46  6.2910610e+00 3.46e-13 1.33e+04  -8.6 1.02e-01 -14.6 9.62e-01 9.24e-01f  1
  47  1.4863648e+00 2.04e-12 4.59e+02  -8.6 5.42e-02 -14.2 7.89e-01 9.65e-01f  1
  48  4.3367432e-01 3.55e-12 6.85e+00  -8.6 2.49e-02 -14.7 5.58e-01 9.85e-01f  1
  49  1.5539963e-01 9.64e-10 2.68e-14  -8.6 1.17e-02 -15.2 1.00e+00 1.00e+00f  1
iter    objective    inf_pr   inf_du lg(mu)  ||d||  lg(rg) alpha_du alpha_pr  ls
  50  3.8724831e-02 3.12e-12 2.84e-14  -8.6 8.76e-03 -14.7 1.00e+00 1.00e+00f  1
  51  9.5556343e-03 3.86e-13 2.67e-14  -8.6 4.38e-03 -14.3 1.00e+00 1.00e+00f  1
  52  2.2633415e-03 1.87e-12 2.66e-14  -8.6 2.19e-03 -14.8 1.00e+00 1.00e+00f  1
  53  4.4027087e-04 1.15e-12 2.66e-14  -8.6 1.09e-03 -14.4 1.00e+00 1.00e+00f  1
  54 -1.5494530e-05 1.26e-12 2.66e-14  -8.6 5.47e-04 -14.8 1.00e+00 1.00e+00f  1
  55 -1.2943079e-04 6.30e-13 2.67e-14  -8.6 2.72e-04 -14.4 1.00e+00 1.00e+00f  1
  56 -1.5789700e-04 2.89e-13 2.68e-14  -8.6 1.32e-04 -14.9 1.00e+00 1.00e+00f  1
  57 -1.7099180e-04 7.71e-13 1.08e-14  -9.0 6.83e-05 -14.5 1.00e+00 1.00e+00f  1

Number of Iterations....: 57

                                   (scaled)                 (unscaled)
Objective...............:  -1.7099180100163384e-04   -1.7099180100163384e-04
Dual infeasibility......:   1.0824674490095276e-14    1.0824674490095276e-14
Constraint violation....:   7.7093886829970870e-13    7.7093886829970870e-13
Complementarity.........:   3.9850084533447453e-09    3.9850084533447453e-09
Overall NLP error.......:   3.9850084533447453e-09    3.9850084533447453e-09


Number of objective function evaluations             = 65
Number of objective gradient evaluations             = 58
Number of equality constraint evaluations            = 65
Number of inequality constraint evaluations          = 0
Number of equality constraint Jacobian evaluations   = 58
Number of inequality constraint Jacobian evaluations = 0
Number of Lagrangian Hessian evaluations             = 57
Total CPU secs in IPOPT (w/o function evaluations)   =     27.665
Total CPU secs in NLP function evaluations           =      2.464

EXIT: Optimal Solution Found.

************************ CUTEst statistics ************************


 Package used            :  IPOPT
 Problem                 :  A2ENSNDL  
 # variables             =           45006
 # constraints           =           15002
 # objective functions   =        0.1240000E+03
 # objective gradients   =        0.5900000E+02
 # objective Hessians    =        0.5800000E+02
 # Hessian-vector prdct  =        0.0000000E+00
 # constraints functions =        0.1250000E+03
 # constraints gradients =        0.6000000E+02
 # constraints Hessians  =        0.5800000E+02
 Exit code               =               0
 Final f                 =       -1.7099180100163384D-04
 Bounds feasibility      =        9.9090717284561324D-09
 Set up time             =            0.73 seconds
 Solve time              =           58.39 seconds


******************************************************************

